(declare-const x String)
(declare-const y String)
(declare-const m String)
(declare-const n String)
(assert (str.in.re x (re.* (re.++ (str.to.re "a") (str.to.re "b")))))
(assert (= 2 (str.len x)))
(assert (not (= x "L/f")))
(assert (not (= x "Bf'\r''\x0c'' '")))
(assert (not (= x "bKL")))
(assert (not (= x "bb")))
(assert (not (= x "'\n'Kha")))
(assert (not (= x "aO=")))
(assert (not (= x "pkqaa")))
(check-sat)
(get-model)
